20J6M/DAT/20J6MULL-19.dat
20 6
45.1781 45.1781
0.1409 0.1409
21.0899 21.0899
4.7864 4.7864
9.1472 9.1472
24.2595 24.2595
11.0975 11.0975
16.6765 16.6765
19.0869 19.0869
37.9906 37.9906
26.7436 26.7436
8.8213 8.8213
44.218 44.218
28.2567 28.2567
27.7415 27.7415
9.7574 9.7574
17.4303 17.4303
0.4437 0.4437
1.634 1.634
27.4102 27.4102
63.6517