20J6M/SOL/20J6MULL-19.sol
solution status: optimal solution found
objective value:                              63.6517
x#1#3                               0.430157532078596 	(obj:0)
x#1#5                               0.569842467921404 	(obj:0)
x#2#1                                               1 	(obj:0)
x#3#2                               0.143300821720351 	(obj:0)
x#3#5                               0.856699178279649 	(obj:0)
x#4#2                                               1 	(obj:0)
x#5#2                                               1 	(obj:0)
x#6#4                               0.182192543127435 	(obj:0)
x#6#5                               0.817807456872565 	(obj:0)
x#7#4                                               1 	(obj:0)
x#8#1                                               1 	(obj:0)
x#9#2                                               1 	(obj:0)
x#10#1                              0.530104815401705 	(obj:0)
x#10#2                              0.469895184598295 	(obj:0)
x#11#4                                              1 	(obj:0)
x#12#1                                              1 	(obj:0)
x#13#3                                              1 	(obj:0)
x#14#6                                              1 	(obj:0)
x#15#6                                              1 	(obj:0)
x#16#2                                              1 	(obj:0)
x#17#1                                              1 	(obj:0)
x#18#1                                              1 	(obj:0)
x#19#4                                              1 	(obj:0)
x#20#4                              0.720779126018781 	(obj:0)
x#20#6                              0.279220873981219 	(obj:0)
z                                             63.6517 	(obj:1)
